NAME : 10_3_3_1_(05).dat
COMMENT : Henke, Speranza, Wäscher, 2015
TYPE : MCVRP
DIMENSION : 11
EDGE_WEIGHT_TYPE : DISTANCE_MATRIX
CAPACITY : 1000
VEHICLES : 3
PRODUCT TYPES : 3
COMPARTMENTS : 3
NODE_COORD_SECTION
1 50 50
2 82.99 44.76
3 52.08 80.43
4 23.85 49.13
5 47.63 48.57
6 6.34 71.57
7 7.79 37.19
8 46.46 76.48
9 30.55 85.43
10 52.87 2.02
11 3.97 42.36
DEMAND_SECTION
1 0 0 0
2 154 0 0
3 175 0 0
4 0 228 0
5 45 0 0
6 0 0 303
7 150 0 0
8 0 37 0
9 0 191 0
10 189 0 0
11 45 0 0
DEPOT_SECTION
1
EOF